# Objective value = 3.4340097818664970e+02
x[0,1,0,2] 0
x[0,1,0,1] 1
x[0,1,0,5] 0
x[0,1,0,7] 0
x[0,1,1,4] 0
x[0,1,1,7] 0
x[0,1,1,10] 0
x[0,1,1,6] 0
x[0,1,1,0] 0
x[0,1,1,9] 0
x[0,1,2,1] 1
x[0,1,2,4] 0
x[0,1,2,7] 0
x[0,1,2,9] 0
x[0,1,2,5] 0
x[0,1,2,0] 0
x[0,1,3,7] 0
x[0,1,3,4] 0
x[0,1,3,5] 0
x[0,1,3,0] 0
x[0,1,4,8] 0
x[0,1,4,10] 0
x[0,1,4,9] 0
x[0,1,4,7] 0
x[0,1,5,5] 0
x[0,1,5,7] 0
x[0,1,5,0] 0
x[0,1,5,10] 0
x[0,1,5,4] 0
x[0,1,5,1] 1
x[0,1,5,6] 0
x[0,1,6,4] 0
x[0,1,6,6] 0
x[0,1,6,10] 0
x[0,1,6,5] 0
x[0,1,6,7] 0
x[0,1,6,0] 0
x[0,1,6,2] 0
x[0,1,7,4] 0
x[0,1,7,10] 0
x[0,1,7,1] 1
x[0,1,7,8] 0
x[0,2,0,2] 0
x[0,2,0,1] 0
x[0,2,0,5] 0
x[0,2,0,7] 0
x[0,2,1,4] 0
x[0,2,1,7] 0
x[0,2,1,10] 0
x[0,2,1,6] 0
x[0,2,1,0] 0
x[0,2,1,9] 0
x[0,2,2,1] 0
x[0,2,2,4] 0
x[0,2,2,7] 0
x[0,2,2,9] 0
x[0,2,2,5] 0
x[0,2,2,0] 0
x[0,2,3,7] 0
x[0,2,3,4] 0
x[0,2,3,5] 0
x[0,2,3,0] 0
x[0,2,4,8] 0
x[0,2,4,10] 0
x[0,2,4,9] 0
x[0,2,4,7] 0
x[0,2,5,5] 0
x[0,2,5,7] 0
x[0,2,5,0] 0
x[0,2,5,10] 0
x[0,2,5,4] 0
x[0,2,5,1] 0
x[0,2,5,6] 0
x[0,2,6,4] 0
x[0,2,6,6] 0
x[0,2,6,10] 0
x[0,2,6,5] 0
x[0,2,6,7] 0
x[0,2,6,0] 0
x[0,2,6,2] 0
x[0,2,7,4] 1
x[0,2,7,10] 1
x[0,2,7,1] 0
x[0,2,7,8] 1
x[1,0,0,2] 0
x[1,0,0,1] 0
x[1,0,0,5] 0
x[1,0,0,7] 0
x[1,0,1,4] 0
x[1,0,1,7] 0
x[1,0,1,10] 0
x[1,0,1,6] 0
x[1,0,1,0] 1
x[1,0,1,9] 0
x[1,0,2,1] 0
x[1,0,2,4] 0
x[1,0,2,7] 0
x[1,0,2,9] 0
x[1,0,2,5] 0
x[1,0,2,0] 0
x[1,0,3,7] 0
x[1,0,3,4] 0
x[1,0,3,5] 0
x[1,0,3,0] 1
x[1,0,4,8] 0
x[1,0,4,10] 0
x[1,0,4,9] 0
x[1,0,4,7] 0
x[1,0,5,5] 0
x[1,0,5,7] 0
x[1,0,5,0] 0
x[1,0,5,10] 0
x[1,0,5,4] 0
x[1,0,5,1] 0
x[1,0,5,6] 0
x[1,0,6,4] 0
x[1,0,6,6] 0
x[1,0,6,10] 0
x[1,0,6,5] 0
x[1,0,6,7] 0
x[1,0,6,0] 0
x[1,0,6,2] 0
x[1,0,7,4] 0
x[1,0,7,10] 0
x[1,0,7,1] 0
x[1,0,7,8] 0
x[1,10,0,2] 0
x[1,10,0,1] 0
x[1,10,0,5] 0
x[1,10,0,7] 0
x[1,10,1,4] 0
x[1,10,1,7] 0
x[1,10,1,10] 0
x[1,10,1,6] 0
x[1,10,1,0] 0
x[1,10,1,9] 0
x[1,10,2,1] 0
x[1,10,2,4] 0
x[1,10,2,7] 0
x[1,10,2,9] 0
x[1,10,2,5] 0
x[1,10,2,0] 0
x[1,10,3,7] 0
x[1,10,3,4] 0
x[1,10,3,5] 0
x[1,10,3,0] 0
x[1,10,4,8] 0
x[1,10,4,10] 0
x[1,10,4,9] 0
x[1,10,4,7] 0
x[1,10,5,5] 0
x[1,10,5,7] 0
x[1,10,5,0] 0
x[1,10,5,10] 0
x[1,10,5,4] 0
x[1,10,5,1] 0
x[1,10,5,6] 0
x[1,10,6,4] 0
x[1,10,6,6] 0
x[1,10,6,10] 0
x[1,10,6,5] 0
x[1,10,6,7] 0
x[1,10,6,0] 0
x[1,10,6,2] 0
x[1,10,7,4] 0
x[1,10,7,10] 0
x[1,10,7,1] 0
x[1,10,7,8] 0
x[2,0,0,2] 0
x[2,0,0,1] 1
x[2,0,0,5] 0
x[2,0,0,7] 0
x[2,0,1,4] 0
x[2,0,1,7] 0
x[2,0,1,10] 0
x[2,0,1,6] 0
x[2,0,1,0] 0
x[2,0,1,9] 0
x[2,0,2,1] 1
x[2,0,2,4] 0
x[2,0,2,7] 0
x[2,0,2,9] 0
x[2,0,2,5] 0
x[2,0,2,0] 1
x[2,0,3,7] 0
x[2,0,3,4] 0
x[2,0,3,5] 0
x[2,0,3,0] 0
x[2,0,4,8] 0
x[2,0,4,10] 0
x[2,0,4,9] 0
x[2,0,4,7] 0
x[2,0,5,5] 0
x[2,0,5,7] 0
x[2,0,5,0] 1
x[2,0,5,10] 0
x[2,0,5,4] 0
x[2,0,5,1] 1
x[2,0,5,6] 0
x[2,0,6,4] 0
x[2,0,6,6] 0
x[2,0,6,10] 0
x[2,0,6,5] 0
x[2,0,6,7] 0
x[2,0,6,0] 1
x[2,0,6,2] 0
x[2,0,7,4] 0
x[2,0,7,10] 0
x[2,0,7,1] 0
x[2,0,7,8] 0
x[2,9,0,2] 0
x[2,9,0,1] 0
x[2,9,0,5] 0
x[2,9,0,7] 0
x[2,9,1,4] 0
x[2,9,1,7] 0
x[2,9,1,10] 0
x[2,9,1,6] 0
x[2,9,1,0] 0
x[2,9,1,9] 0
x[2,9,2,1] 0
x[2,9,2,4] 0
x[2,9,2,7] 0
x[2,9,2,9] 0
x[2,9,2,5] 0
x[2,9,2,0] 0
x[2,9,3,7] 0
x[2,9,3,4] 0
x[2,9,3,5] 0
x[2,9,3,0] 0
x[2,9,4,8] 0
x[2,9,4,10] 0
x[2,9,4,9] 0
x[2,9,4,7] 0
x[2,9,5,5] 0
x[2,9,5,7] 0
x[2,9,5,0] 0
x[2,9,5,10] 0
x[2,9,5,4] 0
x[2,9,5,1] 0
x[2,9,5,6] 0
x[2,9,6,4] 0
x[2,9,6,6] 0
x[2,9,6,10] 0
x[2,9,6,5] 0
x[2,9,6,7] 0
x[2,9,6,0] 0
x[2,9,6,2] 0
x[2,9,7,4] 1
x[2,9,7,10] 1
x[2,9,7,1] 0
x[2,9,7,8] 1
x[3,4,0,2] 0
x[3,4,0,1] 0
x[3,4,0,5] 0
x[3,4,0,7] 0
x[3,4,1,4] 1
x[3,4,1,7] 0
x[3,4,1,10] 0
x[3,4,1,6] 0
x[3,4,1,0] 0
x[3,4,1,9] 1
x[3,4,2,1] 0
x[3,4,2,4] 0
x[3,4,2,7] 0
x[3,4,2,9] 0
x[3,4,2,5] 0
x[3,4,2,0] 0
x[3,4,3,7] 0
x[3,4,3,4] 0
x[3,4,3,5] 0
x[3,4,3,0] 0
x[3,4,4,8] 1
x[3,4,4,10] 0
x[3,4,4,9] 1
x[3,4,4,7] 0
x[3,4,5,5] 0
x[3,4,5,7] 0
x[3,4,5,0] 0
x[3,4,5,10] 0
x[3,4,5,4] 0
x[3,4,5,1] 0
x[3,4,5,6] 0
x[3,4,6,4] 0
x[3,4,6,6] 0
x[3,4,6,10] 0
x[3,4,6,5] 0
x[3,4,6,7] 0
x[3,4,6,0] 0
x[3,4,6,2] 0
x[3,4,7,4] 0
x[3,4,7,10] 0
x[3,4,7,1] 0
x[3,4,7,8] 0
x[3,6,0,2] 0
x[3,6,0,1] 0
x[3,6,0,5] 0
x[3,6,0,7] 0
x[3,6,1,4] 0
x[3,6,1,7] 1
x[3,6,1,10] 1
x[3,6,1,6] 1
x[3,6,1,0] 1
x[3,6,1,9] 0
x[3,6,2,1] 0
x[3,6,2,4] 0
x[3,6,2,7] 0
x[3,6,2,9] 0
x[3,6,2,5] 0
x[3,6,2,0] 0
x[3,6,3,7] 0
x[3,6,3,4] 0
x[3,6,3,5] 0
x[3,6,3,0] 0
x[3,6,4,8] 0
x[3,6,4,10] 1
x[3,6,4,9] 0
x[3,6,4,7] 1
x[3,6,5,5] 0
x[3,6,5,7] 0
x[3,6,5,0] 0
x[3,6,5,10] 0
x[3,6,5,4] 0
x[3,6,5,1] 0
x[3,6,5,6] 0
x[3,6,6,4] 0
x[3,6,6,6] 0
x[3,6,6,10] 0
x[3,6,6,5] 0
x[3,6,6,7] 0
x[3,6,6,0] 0
x[3,6,6,2] 0
x[3,6,7,4] 0
x[3,6,7,10] 0
x[3,6,7,1] 0
x[3,6,7,8] 0
x[4,3,0,2] 0
x[4,3,0,1] 0
x[4,3,0,5] 0
x[4,3,0,7] 0
x[4,3,1,4] 0
x[4,3,1,7] 0
x[4,3,1,10] 0
x[4,3,1,6] 0
x[4,3,1,0] 0
x[4,3,1,9] 0
x[4,3,2,1] 0
x[4,3,2,4] 0
x[4,3,2,7] 0
x[4,3,2,9] 0
x[4,3,2,5] 0
x[4,3,2,0] 0
x[4,3,3,7] 0
x[4,3,3,4] 0
x[4,3,3,5] 0
x[4,3,3,0] 0
x[4,3,4,8] 0
x[4,3,4,10] 0
x[4,3,4,9] 0
x[4,3,4,7] 0
x[4,3,5,5] 0
x[4,3,5,7] 0
x[4,3,5,0] 0
x[4,3,5,10] 0
x[4,3,5,4] 0
x[4,3,5,1] 0
x[4,3,5,6] 0
x[4,3,6,4] 0
x[4,3,6,6] 0
x[4,3,6,10] 0
x[4,3,6,5] 0
x[4,3,6,7] 0
x[4,3,6,0] 0
x[4,3,6,2] 0
x[4,3,7,4] 0
x[4,3,7,10] 0
x[4,3,7,1] 0
x[4,3,7,8] 0
x[4,5,0,2] 1
x[4,5,0,1] 1
x[4,5,0,5] 1
x[4,5,0,7] 0
x[4,5,1,4] 0
x[4,5,1,7] 0
x[4,5,1,10] 0
x[4,5,1,6] 0
x[4,5,1,0] 0
x[4,5,1,9] 1
x[4,5,2,1] 0
x[4,5,2,4] 0
x[4,5,2,7] 0
x[4,5,2,9] 0
x[4,5,2,5] 0
x[4,5,2,0] 0
x[4,5,3,7] 0
x[4,5,3,4] 0
x[4,5,3,5] 1
x[4,5,3,0] 0
x[4,5,4,8] 1
x[4,5,4,10] 0
x[4,5,4,9] 1
x[4,5,4,7] 0
x[4,5,5,5] 0
x[4,5,5,7] 0
x[4,5,5,0] 0
x[4,5,5,10] 0
x[4,5,5,4] 0
x[4,5,5,1] 0
x[4,5,5,6] 0
x[4,5,6,4] 0
x[4,5,6,6] 0
x[4,5,6,10] 0
x[4,5,6,5] 0
x[4,5,6,7] 0
x[4,5,6,0] 0
x[4,5,6,2] 0
x[4,5,7,4] 0
x[4,5,7,10] 0
x[4,5,7,1] 0
x[4,5,7,8] 0
x[4,6,0,2] 0
x[4,6,0,1] 0
x[4,6,0,5] 0
x[4,6,0,7] 1
x[4,6,1,4] 0
x[4,6,1,7] 0
x[4,6,1,10] 0
x[4,6,1,6] 0
x[4,6,1,0] 0
x[4,6,1,9] 0
x[4,6,2,1] 0
x[4,6,2,4] 0
x[4,6,2,7] 0
x[4,6,2,9] 0
x[4,6,2,5] 0
x[4,6,2,0] 0
x[4,6,3,7] 0
x[4,6,3,4] 0
x[4,6,3,5] 0
x[4,6,3,0] 0
x[4,6,4,8] 0
x[4,6,4,10] 0
x[4,6,4,9] 0
x[4,6,4,7] 0
x[4,6,5,5] 0
x[4,6,5,7] 0
x[4,6,5,0] 0
x[4,6,5,10] 0
x[4,6,5,4] 0
x[4,6,5,1] 0
x[4,6,5,6] 0
x[4,6,6,4] 0
x[4,6,6,6] 0
x[4,6,6,10] 0
x[4,6,6,5] 0
x[4,6,6,7] 0
x[4,6,6,0] 0
x[4,6,6,2] 0
x[4,6,7,4] 0
x[4,6,7,10] 0
x[4,6,7,1] 0
x[4,6,7,8] 0
x[5,4,0,2] 0
x[5,4,0,1] 0
x[5,4,0,5] 0
x[5,4,0,7] 0
x[5,4,1,4] 0
x[5,4,1,7] 0
x[5,4,1,10] 0
x[5,4,1,6] 0
x[5,4,1,0] 0
x[5,4,1,9] 0
x[5,4,2,1] 0
x[5,4,2,4] 1
x[5,4,2,7] 0
x[5,4,2,9] 0
x[5,4,2,5] 0
x[5,4,2,0] 0
x[5,4,3,7] 0
x[5,4,3,4] 0
x[5,4,3,5] 0
x[5,4,3,0] 0
x[5,4,4,8] 0
x[5,4,4,10] 0
x[5,4,4,9] 0
x[5,4,4,7] 0
x[5,4,5,5] 0
x[5,4,5,7] 0
x[5,4,5,0] 0
x[5,4,5,10] 0
x[5,4,5,4] 1
x[5,4,5,1] 0
x[5,4,5,6] 0
x[5,4,6,4] 1
x[5,4,6,6] 0
x[5,4,6,10] 0
x[5,4,6,5] 0
x[5,4,6,7] 0
x[5,4,6,0] 0
x[5,4,6,2] 0
x[5,4,7,4] 1
x[5,4,7,10] 0
x[5,4,7,1] 0
x[5,4,7,8] 0
x[5,8,0,2] 1
x[5,8,0,1] 1
x[5,8,0,5] 0
x[5,8,0,7] 0
x[5,8,1,4] 0
x[5,8,1,7] 0
x[5,8,1,10] 0
x[5,8,1,6] 0
x[5,8,1,0] 0
x[5,8,1,9] 1
x[5,8,2,1] 0
x[5,8,2,4] 0
x[5,8,2,7] 0
x[5,8,2,9] 0
x[5,8,2,5] 0
x[5,8,2,0] 0
x[5,8,3,7] 0
x[5,8,3,4] 0
x[5,8,3,5] 0
x[5,8,3,0] 0
x[5,8,4,8] 1
x[5,8,4,10] 0
x[5,8,4,9] 1
x[5,8,4,7] 0
x[5,8,5,5] 0
x[5,8,5,7] 0
x[5,8,5,0] 0
x[5,8,5,10] 0
x[5,8,5,4] 0
x[5,8,5,1] 0
x[5,8,5,6] 0
x[5,8,6,4] 0
x[5,8,6,6] 0
x[5,8,6,10] 0
x[5,8,6,5] 0
x[5,8,6,7] 0
x[5,8,6,0] 0
x[5,8,6,2] 0
x[5,8,7,4] 0
x[5,8,7,10] 0
x[5,8,7,1] 0
x[5,8,7,8] 0
x[6,3,0,2] 0
x[6,3,0,1] 0
x[6,3,0,5] 0
x[6,3,0,7] 0
x[6,3,1,4] 0
x[6,3,1,7] 0
x[6,3,1,10] 0
x[6,3,1,6] 0
x[6,3,1,0] 0
x[6,3,1,9] 0
x[6,3,2,1] 0
x[6,3,2,4] 0
x[6,3,2,7] 0
x[6,3,2,9] 0
x[6,3,2,5] 0
x[6,3,2,0] 0
x[6,3,3,7] 0
x[6,3,3,4] 0
x[6,3,3,5] 0
x[6,3,3,0] 0
x[6,3,4,8] 0
x[6,3,4,10] 0
x[6,3,4,9] 0
x[6,3,4,7] 0
x[6,3,5,5] 0
x[6,3,5,7] 0
x[6,3,5,0] 0
x[6,3,5,10] 0
x[6,3,5,4] 0
x[6,3,5,1] 0
x[6,3,5,6] 0
x[6,3,6,4] 0
x[6,3,6,6] 0
x[6,3,6,10] 0
x[6,3,6,5] 0
x[6,3,6,7] 0
x[6,3,6,0] 0
x[6,3,6,2] 0
x[6,3,7,4] 0
x[6,3,7,10] 0
x[6,3,7,1] 0
x[6,3,7,8] 0
x[6,4,0,2] 0
x[6,4,0,1] 0
x[6,4,0,5] 0
x[6,4,0,7] 0
x[6,4,1,4] 0
x[6,4,1,7] 0
x[6,4,1,10] 0
x[6,4,1,6] 0
x[6,4,1,0] 0
x[6,4,1,9] 0
x[6,4,2,1] 0
x[6,4,2,4] 0
x[6,4,2,7] 0
x[6,4,2,9] 0
x[6,4,2,5] 0
x[6,4,2,0] 0
x[6,4,3,7] 0
x[6,4,3,4] 1
x[6,4,3,5] 1
x[6,4,3,0] 0
x[6,4,4,8] 0
x[6,4,4,10] 0
x[6,4,4,9] 0
x[6,4,4,7] 0
x[6,4,5,5] 0
x[6,4,5,7] 0
x[6,4,5,0] 0
x[6,4,5,10] 0
x[6,4,5,4] 0
x[6,4,5,1] 0
x[6,4,5,6] 0
x[6,4,6,4] 0
x[6,4,6,6] 0
x[6,4,6,10] 0
x[6,4,6,5] 0
x[6,4,6,7] 0
x[6,4,6,0] 0
x[6,4,6,2] 0
x[6,4,7,4] 0
x[6,4,7,10] 0
x[6,4,7,1] 0
x[6,4,7,8] 0
x[6,7,0,2] 0
x[6,7,0,1] 0
x[6,7,0,5] 0
x[6,7,0,7] 1
x[6,7,1,4] 0
x[6,7,1,7] 1
x[6,7,1,10] 1
x[6,7,1,6] 0
x[6,7,1,0] 1
x[6,7,1,9] 0
x[6,7,2,1] 0
x[6,7,2,4] 0
x[6,7,2,7] 0
x[6,7,2,9] 0
x[6,7,2,5] 0
x[6,7,2,0] 0
x[6,7,3,7] 1
x[6,7,3,4] 0
x[6,7,3,5] 0
x[6,7,3,0] 1
x[6,7,4,8] 0
x[6,7,4,10] 1
x[6,7,4,9] 0
x[6,7,4,7] 1
x[6,7,5,5] 0
x[6,7,5,7] 0
x[6,7,5,0] 0
x[6,7,5,10] 0
x[6,7,5,4] 0
x[6,7,5,1] 0
x[6,7,5,6] 0
x[6,7,6,4] 0
x[6,7,6,6] 0
x[6,7,6,10] 0
x[6,7,6,5] 0
x[6,7,6,7] 0
x[6,7,6,0] 0
x[6,7,6,2] 0
x[6,7,7,4] 0
x[6,7,7,10] 0
x[6,7,7,1] 0
x[6,7,7,8] 0
x[7,6,0,2] 0
x[7,6,0,1] 0
x[7,6,0,5] 0
x[7,6,0,7] 0
x[7,6,1,4] 0
x[7,6,1,7] 0
x[7,6,1,10] 0
x[7,6,1,6] 0
x[7,6,1,0] 0
x[7,6,1,9] 0
x[7,6,2,1] 0
x[7,6,2,4] 0
x[7,6,2,7] 0
x[7,6,2,9] 0
x[7,6,2,5] 0
x[7,6,2,0] 0
x[7,6,3,7] 0
x[7,6,3,4] 0
x[7,6,3,5] 0
x[7,6,3,0] 0
x[7,6,4,8] 0
x[7,6,4,10] 0
x[7,6,4,9] 0
x[7,6,4,7] 0
x[7,6,5,5] 0
x[7,6,5,7] 0
x[7,6,5,0] 0
x[7,6,5,10] 0
x[7,6,5,4] 0
x[7,6,5,1] 0
x[7,6,5,6] 1
x[7,6,6,4] 0
x[7,6,6,6] 1
x[7,6,6,10] 0
x[7,6,6,5] 0
x[7,6,6,7] 0
x[7,6,6,0] 0
x[7,6,6,2] 0
x[7,6,7,4] 0
x[7,6,7,10] 0
x[7,6,7,1] 0
x[7,6,7,8] 0
x[7,8,0,2] 0
x[7,8,0,1] 0
x[7,8,0,5] 0
x[7,8,0,7] 0
x[7,8,1,4] 0
x[7,8,1,7] 0
x[7,8,1,10] 0
x[7,8,1,6] 0
x[7,8,1,0] 0
x[7,8,1,9] 0
x[7,8,2,1] 0
x[7,8,2,4] 0
x[7,8,2,7] 0
x[7,8,2,9] 0
x[7,8,2,5] 0
x[7,8,2,0] 0
x[7,8,3,7] 0
x[7,8,3,4] 0
x[7,8,3,5] 0
x[7,8,3,0] 0
x[7,8,4,8] 0
x[7,8,4,10] 0
x[7,8,4,9] 0
x[7,8,4,7] 0
x[7,8,5,5] 0
x[7,8,5,7] 0
x[7,8,5,0] 0
x[7,8,5,10] 0
x[7,8,5,4] 0
x[7,8,5,1] 0
x[7,8,5,6] 0
x[7,8,6,4] 0
x[7,8,6,6] 0
x[7,8,6,10] 0
x[7,8,6,5] 0
x[7,8,6,7] 0
x[7,8,6,0] 0
x[7,8,6,2] 0
x[7,8,7,4] 0
x[7,8,7,10] 0
x[7,8,7,1] 0
x[7,8,7,8] 0
x[7,10,0,2] 0
x[7,10,0,1] 0
x[7,10,0,5] 0
x[7,10,0,7] 0
x[7,10,1,4] 0
x[7,10,1,7] 0
x[7,10,1,10] 1
x[7,10,1,6] 0
x[7,10,1,0] 1
x[7,10,1,9] 0
x[7,10,2,1] 0
x[7,10,2,4] 0
x[7,10,2,7] 0
x[7,10,2,9] 0
x[7,10,2,5] 0
x[7,10,2,0] 0
x[7,10,3,7] 0
x[7,10,3,4] 0
x[7,10,3,5] 0
x[7,10,3,0] 1
x[7,10,4,8] 0
x[7,10,4,10] 1
x[7,10,4,9] 0
x[7,10,4,7] 0
x[7,10,5,5] 0
x[7,10,5,7] 0
x[7,10,5,0] 0
x[7,10,5,10] 0
x[7,10,5,4] 0
x[7,10,5,1] 0
x[7,10,5,6] 0
x[7,10,6,4] 0
x[7,10,6,6] 0
x[7,10,6,10] 0
x[7,10,6,5] 0
x[7,10,6,7] 0
x[7,10,6,0] 0
x[7,10,6,2] 0
x[7,10,7,4] 0
x[7,10,7,10] 0
x[7,10,7,1] 0
x[7,10,7,8] 0
x[8,5,0,2] 0
x[8,5,0,1] 0
x[8,5,0,5] 0
x[8,5,0,7] 0
x[8,5,1,4] 0
x[8,5,1,7] 0
x[8,5,1,10] 0
x[8,5,1,6] 0
x[8,5,1,0] 0
x[8,5,1,9] 0
x[8,5,2,1] 0
x[8,5,2,4] 1
x[8,5,2,7] 0
x[8,5,2,9] 0
x[8,5,2,5] 1
x[8,5,2,0] 0
x[8,5,3,7] 0
x[8,5,3,4] 0
x[8,5,3,5] 0
x[8,5,3,0] 0
x[8,5,4,8] 0
x[8,5,4,10] 0
x[8,5,4,9] 0
x[8,5,4,7] 0
x[8,5,5,5] 1
x[8,5,5,7] 0
x[8,5,5,0] 0
x[8,5,5,10] 0
x[8,5,5,4] 1
x[8,5,5,1] 0
x[8,5,5,6] 0
x[8,5,6,4] 1
x[8,5,6,6] 0
x[8,5,6,10] 0
x[8,5,6,5] 1
x[8,5,6,7] 0
x[8,5,6,0] 0
x[8,5,6,2] 0
x[8,5,7,4] 1
x[8,5,7,10] 0
x[8,5,7,1] 0
x[8,5,7,8] 0
x[8,7,0,2] 0
x[8,7,0,1] 0
x[8,7,0,5] 0
x[8,7,0,7] 0
x[8,7,1,4] 0
x[8,7,1,7] 0
x[8,7,1,10] 0
x[8,7,1,6] 0
x[8,7,1,0] 0
x[8,7,1,9] 0
x[8,7,2,1] 0
x[8,7,2,4] 0
x[8,7,2,7] 1
x[8,7,2,9] 0
x[8,7,2,5] 0
x[8,7,2,0] 0
x[8,7,3,7] 0
x[8,7,3,4] 0
x[8,7,3,5] 0
x[8,7,3,0] 0
x[8,7,4,8] 0
x[8,7,4,10] 0
x[8,7,4,9] 0
x[8,7,4,7] 0
x[8,7,5,5] 0
x[8,7,5,7] 1
x[8,7,5,0] 0
x[8,7,5,10] 0
x[8,7,5,4] 0
x[8,7,5,1] 0
x[8,7,5,6] 1
x[8,7,6,4] 0
x[8,7,6,6] 1
x[8,7,6,10] 0
x[8,7,6,5] 0
x[8,7,6,7] 1
x[8,7,6,0] 0
x[8,7,6,2] 0
x[8,7,7,4] 0
x[8,7,7,10] 0
x[8,7,7,1] 0
x[8,7,7,8] 0
x[8,9,0,2] 1
x[8,9,0,1] 1
x[8,9,0,5] 0
x[8,9,0,7] 0
x[8,9,1,4] 0
x[8,9,1,7] 0
x[8,9,1,10] 0
x[8,9,1,6] 0
x[8,9,1,0] 0
x[8,9,1,9] 1
x[8,9,2,1] 1
x[8,9,2,4] 0
x[8,9,2,7] 0
x[8,9,2,9] 1
x[8,9,2,5] 0
x[8,9,2,0] 1
x[8,9,3,7] 0
x[8,9,3,4] 0
x[8,9,3,5] 0
x[8,9,3,0] 0
x[8,9,4,8] 0
x[8,9,4,10] 0
x[8,9,4,9] 1
x[8,9,4,7] 0
x[8,9,5,5] 0
x[8,9,5,7] 0
x[8,9,5,0] 1
x[8,9,5,10] 1
x[8,9,5,4] 0
x[8,9,5,1] 1
x[8,9,5,6] 0
x[8,9,6,4] 0
x[8,9,6,6] 0
x[8,9,6,10] 0
x[8,9,6,5] 0
x[8,9,6,7] 0
x[8,9,6,0] 0
x[8,9,6,2] 0
x[8,9,7,4] 0
x[8,9,7,10] 0
x[8,9,7,1] 0
x[8,9,7,8] 0
x[9,2,0,2] 1
x[9,2,0,1] 1
x[9,2,0,5] 0
x[9,2,0,7] 0
x[9,2,1,4] 0
x[9,2,1,7] 0
x[9,2,1,10] 0
x[9,2,1,6] 0
x[9,2,1,0] 0
x[9,2,1,9] 0
x[9,2,2,1] 1
x[9,2,2,4] 0
x[9,2,2,7] 0
x[9,2,2,9] 0
x[9,2,2,5] 0
x[9,2,2,0] 1
x[9,2,3,7] 0
x[9,2,3,4] 0
x[9,2,3,5] 0
x[9,2,3,0] 0
x[9,2,4,8] 0
x[9,2,4,10] 0
x[9,2,4,9] 0
x[9,2,4,7] 0
x[9,2,5,5] 0
x[9,2,5,7] 0
x[9,2,5,0] 1
x[9,2,5,10] 0
x[9,2,5,4] 0
x[9,2,5,1] 1
x[9,2,5,6] 0
x[9,2,6,4] 0
x[9,2,6,6] 0
x[9,2,6,10] 0
x[9,2,6,5] 0
x[9,2,6,7] 0
x[9,2,6,0] 1
x[9,2,6,2] 1
x[9,2,7,4] 0
x[9,2,7,10] 0
x[9,2,7,1] 0
x[9,2,7,8] 0
x[9,8,0,2] 0
x[9,8,0,1] 0
x[9,8,0,5] 0
x[9,8,0,7] 0
x[9,8,1,4] 0
x[9,8,1,7] 0
x[9,8,1,10] 0
x[9,8,1,6] 0
x[9,8,1,0] 0
x[9,8,1,9] 0
x[9,8,2,1] 0
x[9,8,2,4] 0
x[9,8,2,7] 0
x[9,8,2,9] 0
x[9,8,2,5] 0
x[9,8,2,0] 0
x[9,8,3,7] 0
x[9,8,3,4] 0
x[9,8,3,5] 0
x[9,8,3,0] 0
x[9,8,4,8] 0
x[9,8,4,10] 0
x[9,8,4,9] 0
x[9,8,4,7] 0
x[9,8,5,5] 0
x[9,8,5,7] 0
x[9,8,5,0] 0
x[9,8,5,10] 0
x[9,8,5,4] 0
x[9,8,5,1] 0
x[9,8,5,6] 0
x[9,8,6,4] 1
x[9,8,6,6] 1
x[9,8,6,10] 0
x[9,8,6,5] 1
x[9,8,6,7] 1
x[9,8,6,0] 0
x[9,8,6,2] 0
x[9,8,7,4] 1
x[9,8,7,10] 0
x[9,8,7,1] 0
x[9,8,7,8] 1
x[9,10,0,2] 0
x[9,10,0,1] 0
x[9,10,0,5] 0
x[9,10,0,7] 0
x[9,10,1,4] 0
x[9,10,1,7] 0
x[9,10,1,10] 0
x[9,10,1,6] 0
x[9,10,1,0] 0
x[9,10,1,9] 0
x[9,10,2,1] 0
x[9,10,2,4] 0
x[9,10,2,7] 0
x[9,10,2,9] 0
x[9,10,2,5] 0
x[9,10,2,0] 0
x[9,10,3,7] 0
x[9,10,3,4] 0
x[9,10,3,5] 0
x[9,10,3,0] 0
x[9,10,4,8] 0
x[9,10,4,10] 0
x[9,10,4,9] 0
x[9,10,4,7] 0
x[9,10,5,5] 0
x[9,10,5,7] 0
x[9,10,5,0] 0
x[9,10,5,10] 1
x[9,10,5,4] 0
x[9,10,5,1] 0
x[9,10,5,6] 0
x[9,10,6,4] 0
x[9,10,6,6] 0
x[9,10,6,10] 1
x[9,10,6,5] 0
x[9,10,6,7] 0
x[9,10,6,0] 0
x[9,10,6,2] 0
x[9,10,7,4] 0
x[9,10,7,10] 1
x[9,10,7,1] 0
x[9,10,7,8] 0
x[10,1,0,2] 0
x[10,1,0,1] 0
x[10,1,0,5] 0
x[10,1,0,7] 0
x[10,1,1,4] 0
x[10,1,1,7] 0
x[10,1,1,10] 0
x[10,1,1,6] 0
x[10,1,1,0] 1
x[10,1,1,9] 0
x[10,1,2,1] 0
x[10,1,2,4] 0
x[10,1,2,7] 0
x[10,1,2,9] 0
x[10,1,2,5] 0
x[10,1,2,0] 0
x[10,1,3,7] 0
x[10,1,3,4] 0
x[10,1,3,5] 0
x[10,1,3,0] 1
x[10,1,4,8] 0
x[10,1,4,10] 0
x[10,1,4,9] 0
x[10,1,4,7] 0
x[10,1,5,5] 0
x[10,1,5,7] 0
x[10,1,5,0] 0
x[10,1,5,10] 0
x[10,1,5,4] 0
x[10,1,5,1] 0
x[10,1,5,6] 0
x[10,1,6,4] 0
x[10,1,6,6] 0
x[10,1,6,10] 0
x[10,1,6,5] 0
x[10,1,6,7] 0
x[10,1,6,0] 0
x[10,1,6,2] 0
x[10,1,7,4] 0
x[10,1,7,10] 0
x[10,1,7,1] 0
x[10,1,7,8] 0
x[10,7,0,2] 0
x[10,7,0,1] 0
x[10,7,0,5] 0
x[10,7,0,7] 0
x[10,7,1,4] 0
x[10,7,1,7] 0
x[10,7,1,10] 0
x[10,7,1,6] 0
x[10,7,1,0] 0
x[10,7,1,9] 0
x[10,7,2,1] 0
x[10,7,2,4] 0
x[10,7,2,7] 0
x[10,7,2,9] 0
x[10,7,2,5] 0
x[10,7,2,0] 0
x[10,7,3,7] 0
x[10,7,3,4] 0
x[10,7,3,5] 0
x[10,7,3,0] 0
x[10,7,4,8] 0
x[10,7,4,10] 0
x[10,7,4,9] 0
x[10,7,4,7] 0
x[10,7,5,5] 0
x[10,7,5,7] 0
x[10,7,5,0] 0
x[10,7,5,10] 0
x[10,7,5,4] 0
x[10,7,5,1] 0
x[10,7,5,6] 0
x[10,7,6,4] 0
x[10,7,6,6] 0
x[10,7,6,10] 0
x[10,7,6,5] 0
x[10,7,6,7] 0
x[10,7,6,0] 0
x[10,7,6,2] 0
x[10,7,7,4] 0
x[10,7,7,10] 0
x[10,7,7,1] 0
x[10,7,7,8] 0
x[10,9,0,2] 0
x[10,9,0,1] 0
x[10,9,0,5] 0
x[10,9,0,7] 0
x[10,9,1,4] 0
x[10,9,1,7] 0
x[10,9,1,10] 0
x[10,9,1,6] 0
x[10,9,1,0] 0
x[10,9,1,9] 0
x[10,9,2,1] 0
x[10,9,2,4] 0
x[10,9,2,7] 0
x[10,9,2,9] 0
x[10,9,2,5] 0
x[10,9,2,0] 0
x[10,9,3,7] 0
x[10,9,3,4] 0
x[10,9,3,5] 0
x[10,9,3,0] 0
x[10,9,4,8] 0
x[10,9,4,10] 0
x[10,9,4,9] 0
x[10,9,4,7] 0
x[10,9,5,5] 0
x[10,9,5,7] 0
x[10,9,5,0] 0
x[10,9,5,10] 0
x[10,9,5,4] 0
x[10,9,5,1] 0
x[10,9,5,6] 0
x[10,9,6,4] 0
x[10,9,6,6] 0
x[10,9,6,10] 0
x[10,9,6,5] 0
x[10,9,6,7] 0
x[10,9,6,0] 0
x[10,9,6,2] 0
x[10,9,7,4] 0
x[10,9,7,10] 0
x[10,9,7,1] 0
x[10,9,7,8] 0
y[0,1,0] 1
y[0,1,1] 0
y[0,1,2] 1
y[0,1,3] 0
y[0,1,4] 1
y[0,1,5] 1
y[0,1,6] 0
y[0,1,7] 1
y[0,2,0] 0
y[0,2,1] 0
y[0,2,2] 0
y[0,2,3] 0
y[0,2,4] 1
y[0,2,5] 0
y[0,2,6] 0
y[0,2,7] 1
y[1,0,0] 0
y[1,0,1] 1
y[1,0,2] 0
y[1,0,3] 1
y[1,0,4] 1
y[1,0,5] 0
y[1,0,6] 0
y[1,0,7] 1
y[1,10,0] 0
y[1,10,1] 0
y[1,10,2] 0
y[1,10,3] 0
y[1,10,4] 0
y[1,10,5] 0
y[1,10,6] 0
y[1,10,7] 0
y[2,0,0] 1
y[2,0,1] 0
y[2,0,2] 1
y[2,0,3] 0
y[2,0,4] 0
y[2,0,5] 1
y[2,0,6] 1
y[2,0,7] 0
y[2,9,0] 0
y[2,9,1] 0
y[2,9,2] 0
y[2,9,3] 0
y[2,9,4] 0
y[2,9,5] 0
y[2,9,6] 1
y[2,9,7] 1
y[3,4,0] 0
y[3,4,1] 1
y[3,4,2] 0
y[3,4,3] 0
y[3,4,4] 1
y[3,4,5] 0
y[3,4,6] 0
y[3,4,7] 0
y[3,6,0] 0
y[3,6,1] 1
y[3,6,2] 1
y[3,6,3] 0
y[3,6,4] 1
y[3,6,5] 0
y[3,6,6] 0
y[3,6,7] 0
y[4,3,0] 1
y[4,3,1] 1
y[4,3,2] 0
y[4,3,3] 0
y[4,3,4] 1
y[4,3,5] 1
y[4,3,6] 1
y[4,3,7] 1
y[4,5,0] 1
y[4,5,1] 1
y[4,5,2] 0
y[4,5,3] 1
y[4,5,4] 1
y[4,5,5] 0
y[4,5,6] 0
y[4,5,7] 0
y[4,6,0] 1
y[4,6,1] 0
y[4,6,2] 0
y[4,6,3] 1
y[4,6,4] 0
y[4,6,5] 0
y[4,6,6] 0
y[4,6,7] 0
y[5,4,0] 1
y[5,4,1] 0
y[5,4,2] 1
y[5,4,3] 0
y[5,4,4] 0
y[5,4,5] 1
y[5,4,6] 1
y[5,4,7] 1
y[5,8,0] 1
y[5,8,1] 1
y[5,8,2] 0
y[5,8,3] 0
y[5,8,4] 1
y[5,8,5] 1
y[5,8,6] 0
y[5,8,7] 0
y[6,3,0] 0
y[6,3,1] 0
y[6,3,2] 1
y[6,3,3] 1
y[6,3,4] 0
y[6,3,5] 0
y[6,3,6] 0
y[6,3,7] 0
y[6,4,0] 0
y[6,4,1] 0
y[6,4,2] 0
y[6,4,3] 1
y[6,4,4] 0
y[6,4,5] 0
y[6,4,6] 0
y[6,4,7] 0
y[6,7,0] 1
y[6,7,1] 1
y[6,7,2] 0
y[6,7,3] 1
y[6,7,4] 1
y[6,7,5] 0
y[6,7,6] 0
y[6,7,7] 0
y[7,6,0] 0
y[7,6,1] 0
y[7,6,2] 0
y[7,6,3] 0
y[7,6,4] 0
y[7,6,5] 1
y[7,6,6] 1
y[7,6,7] 1
y[7,8,0] 0
y[7,8,1] 0
y[7,8,2] 1
y[7,8,3] 1
y[7,8,4] 0
y[7,8,5] 0
y[7,8,6] 0
y[7,8,7] 0
y[7,10,0] 1
y[7,10,1] 1
y[7,10,2] 1
y[7,10,3] 1
y[7,10,4] 1
y[7,10,5] 0
y[7,10,6] 0
y[7,10,7] 0
y[8,5,0] 0
y[8,5,1] 0
y[8,5,2] 1
y[8,5,3] 0
y[8,5,4] 0
y[8,5,5] 1
y[8,5,6] 1
y[8,5,7] 1
y[8,7,0] 0
y[8,7,1] 0
y[8,7,2] 1
y[8,7,3] 0
y[8,7,4] 0
y[8,7,5] 1
y[8,7,6] 1
y[8,7,7] 0
y[8,9,0] 1
y[8,9,1] 1
y[8,9,2] 1
y[8,9,3] 1
y[8,9,4] 1
y[8,9,5] 1
y[8,9,6] 0
y[8,9,7] 0
y[9,2,0] 1
y[9,2,1] 1
y[9,2,2] 1
y[9,2,3] 1
y[9,2,4] 0
y[9,2,5] 1
y[9,2,6] 1
y[9,2,7] 0
y[9,8,0] 0
y[9,8,1] 0
y[9,8,2] 0
y[9,8,3] 0
y[9,8,4] 0
y[9,8,5] 0
y[9,8,6] 1
y[9,8,7] 1
y[9,10,0] 0
y[9,10,1] 0
y[9,10,2] 0
y[9,10,3] 0
y[9,10,4] 0
y[9,10,5] 1
y[9,10,6] 1
y[9,10,7] 1
y[10,1,0] 0
y[10,1,1] 1
y[10,1,2] 0
y[10,1,3] 1
y[10,1,4] 0
y[10,1,5] 0
y[10,1,6] 1
y[10,1,7] 0
y[10,7,0] 0
y[10,7,1] 0
y[10,7,2] 0
y[10,7,3] 0
y[10,7,4] 0
y[10,7,5] 0
y[10,7,6] 0
y[10,7,7] 1
y[10,9,0] 0
y[10,9,1] 0
y[10,9,2] 0
y[10,9,3] 0
y[10,9,4] 0
y[10,9,5] 0
y[10,9,6] 0
y[10,9,7] 0
w[0,1] 1
w[0,2] 1
w[1,0] 1
w[1,10] 100
w[2,0] 1
w[2,9] 1
w[3,4] 1
w[3,6] 1
w[4,3] 100
w[4,5] 1
w[4,6] 100
w[5,4] 1
w[5,8] 1
w[6,3] 100
w[6,4] 1
w[6,7] 1
w[7,6] 1
w[7,8] 2
w[7,10] 1
w[8,5] 1
w[8,7] 100
w[8,9] 1
w[9,2] 1
w[9,8] 1
w[9,10] 98
w[10,1] 1
w[10,7] 100
w[10,9] 100
k[0,1,0] 1
k[0,1,1] 0
k[0,1,2] 1
k[0,1,3] 0
k[0,1,4] 0
k[0,1,5] 1
k[0,1,6] 0
k[0,1,7] 1
k[0,2,0] 0
k[0,2,1] 0
k[0,2,2] 0
k[0,2,3] 0
k[0,2,4] 0
k[0,2,5] 0
k[0,2,6] 0
k[0,2,7] 3
k[1,0,0] 0
k[1,0,1] 1
k[1,0,2] 0
k[1,0,3] 1
k[1,0,4] 0
k[1,0,5] 0
k[1,0,6] 0
k[1,0,7] 0
k[1,10,0] 0
k[1,10,1] 0
k[1,10,2] 0
k[1,10,3] 0
k[1,10,4] 0
k[1,10,5] 0
k[1,10,6] 0
k[1,10,7] 0
k[2,0,0] 1
k[2,0,1] 0
k[2,0,2] 2
k[2,0,3] 0
k[2,0,4] 0
k[2,0,5] 1
k[2,0,6] 1
k[2,0,7] 0
k[2,9,0] 0
k[2,9,1] 0
k[2,9,2] 0
k[2,9,3] 0
k[2,9,4] 0
k[2,9,5] 0
k[2,9,6] 0
k[2,9,7] 3
k[3,4,0] 0
k[3,4,1] 2
k[3,4,2] 0
k[3,4,3] 0
k[3,4,4] 1
k[3,4,5] 0
k[3,4,6] 0
k[3,4,7] 0
k[3,6,0] 0
k[3,6,1] 1
k[3,6,2] 0
k[3,6,3] 0
k[3,6,4] 2
k[3,6,5] 0
k[3,6,6] 0
k[3,6,7] 0
k[4,3,0] 0
k[4,3,1] 0
k[4,3,2] 0
k[4,3,3] 0
k[4,3,4] 0
k[4,3,5] 0
k[4,3,6] 0
k[4,3,7] 0
k[4,5,0] 2
k[4,5,1] 1
k[4,5,2] 0
k[4,5,3] 1
k[4,5,4] 1
k[4,5,5] 0
k[4,5,6] 0
k[4,5,7] 0
k[4,6,0] 1
k[4,6,1] 0
k[4,6,2] 0
k[4,6,3] 0
k[4,6,4] 0
k[4,6,5] 0
k[4,6,6] 0
k[4,6,7] 0
k[5,4,0] 0
k[5,4,1] 0
k[5,4,2] 1
k[5,4,3] 0
k[5,4,4] 0
k[5,4,5] 1
k[5,4,6] 1
k[5,4,7] 1
k[5,8,0] 1
k[5,8,1] 1
k[5,8,2] 0
k[5,8,3] 0
k[5,8,4] 1
k[5,8,5] 0
k[5,8,6] 0
k[5,8,7] 0
k[6,3,0] 0
k[6,3,1] 0
k[6,3,2] 0
k[6,3,3] 0
k[6,3,4] 0
k[6,3,5] 0
k[6,3,6] 0
k[6,3,7] 0
k[6,4,0] 0
k[6,4,1] 0
k[6,4,2] 0
k[6,4,3] 2
k[6,4,4] 0
k[6,4,5] 0
k[6,4,6] 0
k[6,4,7] 0
k[6,7,0] 1
k[6,7,1] 1
k[6,7,2] 0
k[6,7,3] 1
k[6,7,4] 2
k[6,7,5] 0
k[6,7,6] 0
k[6,7,7] 0
k[7,6,0] 0
k[7,6,1] 0
k[7,6,2] 0
k[7,6,3] 0
k[7,6,4] 0
k[7,6,5] 1
k[7,6,6] 1
k[7,6,7] 0
k[7,8,0] 0
k[7,8,1] 0
k[7,8,2] 0
k[7,8,3] 0
k[7,8,4] 0
k[7,8,5] 0
k[7,8,6] 0
k[7,8,7] 0
k[7,10,0] 0
k[7,10,1] 1
k[7,10,2] 0
k[7,10,3] 1
k[7,10,4] 1
k[7,10,5] 0
k[7,10,6] 0
k[7,10,7] 0
k[8,5,0] 0
k[8,5,1] 0
k[8,5,2] 2
k[8,5,3] 0
k[8,5,4] 0
k[8,5,5] 1
k[8,5,6] 1
k[8,5,7] 1
k[8,7,0] 0
k[8,7,1] 0
k[8,7,2] 1
k[8,7,3] 0
k[8,7,4] 0
k[8,7,5] 2
k[8,7,6] 2
k[8,7,7] 0
k[8,9,0] 1
k[8,9,1] 1
k[8,9,2] 3
k[8,9,3] 0
k[8,9,4] 1
k[8,9,5] 1
k[8,9,6] 0
k[8,9,7] 0
k[9,2,0] 1
k[9,2,1] 0
k[9,2,2] 2
k[9,2,3] 0
k[9,2,4] 0
k[9,2,5] 1
k[9,2,6] 2
k[9,2,7] 0
k[9,8,0] 0
k[9,8,1] 0
k[9,8,2] 0
k[9,8,3] 0
k[9,8,4] 0
k[9,8,5] 0
k[9,8,6] 1
k[9,8,7] 2
k[9,10,0] 0
k[9,10,1] 0
k[9,10,2] 0
k[9,10,3] 0
k[9,10,4] 0
k[9,10,5] 1
k[9,10,6] 1
k[9,10,7] 1
k[10,1,0] 0
k[10,1,1] 1
k[10,1,2] 0
k[10,1,3] 1
k[10,1,4] 0
k[10,1,5] 0
k[10,1,6] 0
k[10,1,7] 0
k[10,7,0] 0
k[10,7,1] 0
k[10,7,2] 0
k[10,7,3] 0
k[10,7,4] 0
k[10,7,5] 0
k[10,7,6] 0
k[10,7,7] 0
k[10,9,0] 0
k[10,9,1] 0
k[10,9,2] 0
k[10,9,3] 0
k[10,9,4] 0
k[10,9,5] 0
k[10,9,6] 0
k[10,9,7] 0
b[0,0] 0
b[0,1] 0
b[0,2] 0
b[0,3] 0
b[0,4] 0
b[0,5] 1
b[0,6] 0
b[0,7] 0
b[1,0] 0
b[1,1] 0
b[1,2] 0
b[1,3] 0
b[1,4] 0
b[1,5] 0
b[1,6] 0
b[1,7] 0
b[2,0] 1
b[2,1] 0
b[2,2] 0
b[2,3] 0
b[2,4] 0
b[2,5] 0
b[2,6] 0
b[2,7] 0
b[3,0] 0
b[3,1] 1
b[3,2] 0
b[3,3] 0
b[3,4] 1
b[3,5] 0
b[3,6] 0
b[3,7] 0
b[4,0] 1
b[4,1] 0
b[4,2] 0
b[4,3] 0
b[4,4] 0
b[4,5] 0
b[4,6] 0
b[4,7] 0
b[5,0] 0
b[5,1] 0
b[5,2] 0
b[5,3] 0
b[5,4] 0
b[5,5] 1
b[5,6] 1
b[5,7] 0
b[6,0] 0
b[6,1] 1
b[6,2] 0
b[6,3] 1
b[6,4] 0
b[6,5] 0
b[6,6] 0
b[6,7] 0
b[7,0] 0
b[7,1] 1
b[7,2] 0
b[7,3] 1
b[7,4] 0
b[7,5] 0
b[7,6] 0
b[7,7] 0
b[8,0] 0
b[8,1] 0
b[8,2] 0
b[8,3] 0
b[8,4] 1
b[8,5] 1
b[8,6] 1
b[8,7] 0
b[9,0] 0
b[9,1] 0
b[9,2] 0
b[9,3] 0
b[9,4] 0
b[9,5] 1
b[9,6] 1
b[9,7] 0
b[10,0] 0
b[10,1] 1
b[10,2] 0
b[10,3] 0
b[10,4] 0
b[10,5] 0
b[10,6] 0
b[10,7] 0
c[0,1] 8.2765780503212589e+00
c[0,2] 3.5255852242331138e+00
c[1,0] 4.8837836329875334e-01
c[1,10] 0
c[2,0] 1.5257061586139784e+00
c[2,9] 4.3029710183465246e+00
c[3,4] 2.1125709042104850e+00
c[3,6] 9.0892994834821439e-01
c[4,3] 0
c[4,5] 2.89707436030115
c[4,6] 1.7098028121417866e-01
c[5,4] 7.7251023257428955e+00
c[5,8] 7.9214606948791584e+00
c[6,3] 0
c[6,4] 2.9982198107238195e-01
c[6,7] 6.0895667653249319e+01
c[7,6] 0.525787422126589
c[7,8] 0
c[7,10] 5.3459999820827306e+00
c[8,5] 8.69705128315111
c[8,7] 2.7840855893083352e+00
c[8,9] 1.1670370203010832e+02
c[9,2] 1.0455661931852336e+02
c[9,8] 1.6797299883686931e+00
c[9,10] 1.2711248705479008e+00
c[10,1] 0.786050738601263
c[10,7] 0
c[10,9] 0
